predicate knapsackChoco(array [int] of int: w,array [int] of int: p,array [int] of var int: x,var int: W,var int: P);
array [1..40] of int: X_INTRODUCED_124_ = [1,-560,-1125,-300,-620,-2100,-431,-68,-328,-47,-122,-322,-196,-41,-25,-425,-4260,-416,-115,-82,-22,-631,-132,-420,-86,-42,-103,-215,-81,-91,-26,-49,-420,-316,-72,-71,-49,-108,-116,-90];
array [1..39] of int: X_INTRODUCED_125_ = [40,91,10,30,160,20,3,12,3,18,9,25,1,1,10,280,10,8,1,1,49,8,21,6,1,5,10,8,2,1,0,10,42,6,4,8,0,10,1];
array [1..39] of int: X_INTRODUCED_126_ = [560,1125,300,620,2100,431,68,328,47,122,322,196,41,25,425,4260,416,115,82,22,631,132,420,86,42,103,215,81,91,26,49,420,316,72,71,49,108,116,90];
array [1..39] of int: X_INTRODUCED_127_ = [16,92,41,16,150,23,4,18,6,0,12,8,2,1,0,200,20,6,2,1,70,9,22,4,1,5,10,6,4,0,4,12,8,4,3,0,10,0,6];
array [1..39] of int: X_INTRODUCED_128_ = [38,39,32,71,80,26,5,40,8,12,30,15,0,1,23,100,0,20,3,0,40,6,8,0,6,4,22,4,6,1,5,14,8,2,8,0,20,0,0];
array [1..39] of int: X_INTRODUCED_129_ = [8,71,30,60,200,18,6,30,4,8,31,6,3,0,18,60,21,4,0,2,32,15,31,2,2,7,8,2,8,0,2,8,6,7,1,0,0,20,8];
array [1..39] of int: X_INTRODUCED_130_ = [38,52,30,42,170,9,7,20,0,3,21,4,1,2,14,310,8,4,6,1,18,15,38,10,4,8,6,0,0,3,0,10,6,1,3,0,3,5,4];
var 0..1: X_INTRODUCED_0_;
var 0..1: X_INTRODUCED_1_;
var 0..1: X_INTRODUCED_2_;
var 0..1: X_INTRODUCED_3_;
var 0..1: X_INTRODUCED_4_;
var 0..1: X_INTRODUCED_5_;
var 0..1: X_INTRODUCED_6_;
var 0..1: X_INTRODUCED_7_;
var 0..1: X_INTRODUCED_8_;
var 0..1: X_INTRODUCED_9_;
var 0..1: X_INTRODUCED_10_;
var 0..1: X_INTRODUCED_11_;
var 0..1: X_INTRODUCED_12_;
var 0..1: X_INTRODUCED_13_;
var 0..1: X_INTRODUCED_14_;
var 0..1: X_INTRODUCED_15_;
var 0..1: X_INTRODUCED_16_;
var 0..1: X_INTRODUCED_17_;
var 0..1: X_INTRODUCED_18_;
var 0..1: X_INTRODUCED_19_;
var 0..1: X_INTRODUCED_20_;
var 0..1: X_INTRODUCED_21_;
var 0..1: X_INTRODUCED_22_;
var 0..1: X_INTRODUCED_23_;
var 0..1: X_INTRODUCED_24_;
var 0..1: X_INTRODUCED_25_;
var 0..1: X_INTRODUCED_26_;
var 0..1: X_INTRODUCED_27_;
var 0..1: X_INTRODUCED_28_;
var 0..1: X_INTRODUCED_29_;
var 0..1: X_INTRODUCED_30_;
var 0..1: X_INTRODUCED_31_;
var 0..1: X_INTRODUCED_32_;
var 0..1: X_INTRODUCED_33_;
var 0..1: X_INTRODUCED_34_;
var 0..1: X_INTRODUCED_35_;
var 0..1: X_INTRODUCED_36_;
var 0..1: X_INTRODUCED_37_;
var 0..1: X_INTRODUCED_38_;
var 0..600: X_INTRODUCED_39_;
var 0..500: X_INTRODUCED_40_;
var 0..500: X_INTRODUCED_41_;
var 0..500: X_INTRODUCED_42_;
var 0..600: X_INTRODUCED_43_;
var 0..14723: objective:: output_var:: is_defined_var;
array [1..39] of var int: x:: output_array([1..39]) = [X_INTRODUCED_0_,X_INTRODUCED_1_,X_INTRODUCED_2_,X_INTRODUCED_3_,X_INTRODUCED_4_,X_INTRODUCED_5_,X_INTRODUCED_6_,X_INTRODUCED_7_,X_INTRODUCED_8_,X_INTRODUCED_9_,X_INTRODUCED_10_,X_INTRODUCED_11_,X_INTRODUCED_12_,X_INTRODUCED_13_,X_INTRODUCED_14_,X_INTRODUCED_15_,X_INTRODUCED_16_,X_INTRODUCED_17_,X_INTRODUCED_18_,X_INTRODUCED_19_,X_INTRODUCED_20_,X_INTRODUCED_21_,X_INTRODUCED_22_,X_INTRODUCED_23_,X_INTRODUCED_24_,X_INTRODUCED_25_,X_INTRODUCED_26_,X_INTRODUCED_27_,X_INTRODUCED_28_,X_INTRODUCED_29_,X_INTRODUCED_30_,X_INTRODUCED_31_,X_INTRODUCED_32_,X_INTRODUCED_33_,X_INTRODUCED_34_,X_INTRODUCED_35_,X_INTRODUCED_36_,X_INTRODUCED_37_,X_INTRODUCED_38_];
array [1..40] of var int: X_INTRODUCED_123_ ::var_is_introduced  = [objective,X_INTRODUCED_0_,X_INTRODUCED_1_,X_INTRODUCED_2_,X_INTRODUCED_3_,X_INTRODUCED_4_,X_INTRODUCED_5_,X_INTRODUCED_6_,X_INTRODUCED_7_,X_INTRODUCED_8_,X_INTRODUCED_9_,X_INTRODUCED_10_,X_INTRODUCED_11_,X_INTRODUCED_12_,X_INTRODUCED_13_,X_INTRODUCED_14_,X_INTRODUCED_15_,X_INTRODUCED_16_,X_INTRODUCED_17_,X_INTRODUCED_18_,X_INTRODUCED_19_,X_INTRODUCED_20_,X_INTRODUCED_21_,X_INTRODUCED_22_,X_INTRODUCED_23_,X_INTRODUCED_24_,X_INTRODUCED_25_,X_INTRODUCED_26_,X_INTRODUCED_27_,X_INTRODUCED_28_,X_INTRODUCED_29_,X_INTRODUCED_30_,X_INTRODUCED_31_,X_INTRODUCED_32_,X_INTRODUCED_33_,X_INTRODUCED_34_,X_INTRODUCED_35_,X_INTRODUCED_36_,X_INTRODUCED_37_,X_INTRODUCED_38_];
constraint int_lin_eq(X_INTRODUCED_124_,X_INTRODUCED_123_,0):: defines_var(objective);
constraint knapsackChoco(X_INTRODUCED_125_,X_INTRODUCED_126_,x,X_INTRODUCED_39_,10618);
constraint knapsackChoco(X_INTRODUCED_127_,X_INTRODUCED_126_,x,X_INTRODUCED_40_,10618);
constraint knapsackChoco(X_INTRODUCED_128_,X_INTRODUCED_126_,x,X_INTRODUCED_41_,10618);
constraint knapsackChoco(X_INTRODUCED_129_,X_INTRODUCED_126_,x,X_INTRODUCED_42_,10618);
constraint knapsackChoco(X_INTRODUCED_130_,X_INTRODUCED_126_,x,X_INTRODUCED_43_,10618);
solve :: int_search(x,input_order,indomain_max,complete) maximize objective;
